num_workers = 10;
num_tasks = 7;
num_levels = 8;
P = 72388;
N = 2;
worker_level = [8, 6, 3, 4, 6, 5, 7, 7, 6, 4];
task_level = [8, 3, 5, 2, 8, 7, 4];
fixed_cost = array2d(1..num_workers, 1..num_tasks, [4, 5, 16, 5, 10, 1, 5, 14, 17, 11, 12, 6, 10, 18, 8, 14, 10, 6, 12, 5, 16, 14, 10, 18, 7, 19, 20, 13, 5, 19, 3, 12, 17, 13, 13, 14, 19, 7, 14, 4, 3, 1, 7, 12, 6, 19, 2, 5, 4, 9, 5, 20, 16, 12, 9, 2, 16, 20, 2, 1, 7, 6, 12, 20, 15, 1, 13, 7, 2, 12]);
time_cost = array2d(1..num_workers, 1..num_tasks, [1, 7, 1, 5, 9, 6, 4, 2, 6, 7, 5, 7, 7, 6, 9, 4, 10, 8, 1, 5, 10, 9, 1, 6, 4, 4, 9, 9, 2, 1, 1, 3, 2, 8, 4, 4, 2, 1, 4, 6, 3, 9, 5, 6, 1, 1, 10, 5, 5, 9, 4, 10, 8, 1, 9, 2, 3, 10, 4, 8, 10, 3, 3, 2, 2, 8, 7, 4, 6, 7]);
task_time = [14, 50, 45, 10, 12, 32, 27];
max_worker_time = [30, 91, 77, 88, 84, 42, 50, 76, 63, 45];
